NAME          
ROWS
 N  OBJ
 L  c1
COLUMNS
    MARKER    'MARKER'                 'INTORG'
    x[1]      c1        50
    x[1]      OBJ       -369
    x[2]      c1        806
    x[2]      OBJ       -639
    x[3]      c1        545
    x[3]      OBJ       -864
    x[4]      c1        699
    x[4]      OBJ       -490
    x[5]      c1        986
    x[5]      OBJ       -505
    x[6]      c1        950
    x[6]      OBJ       -13
    x[7]      c1        737
    x[7]      OBJ       -114
    x[8]      c1        543
    x[8]      OBJ       -130
    x[9]      c1        740
    x[9]      OBJ       -763
    x[10]     c1        471
    x[10]     OBJ       -935
    x[11]     c1        212
    x[11]     OBJ       -92
    x[12]     c1        800
    x[12]     OBJ       -229
    x[13]     c1        372
    x[13]     OBJ       -974
    x[14]     c1        274
    x[14]     OBJ       -818
    x[15]     c1        778
    x[15]     OBJ       -382
    x[16]     c1        388
    x[16]     OBJ       -947
    x[17]     c1        267
    x[17]     OBJ       -878
    x[18]     c1        419
    x[18]     OBJ       -682
    x[19]     c1        7
    x[19]     OBJ       -361
    x[20]     c1        387
    x[20]     OBJ       -648
    x[21]     c1        844
    x[21]     OBJ       -750
    x[22]     c1        978
    x[22]     OBJ       -188
    x[23]     c1        795
    x[23]     OBJ       -166
    x[24]     c1        342
    x[24]     OBJ       -113
    x[25]     c1        111
    x[25]     OBJ       -124
    x[26]     c1        250
    x[26]     OBJ       -818
    x[27]     c1        873
    x[27]     OBJ       -852
    x[28]     c1        622
    x[28]     OBJ       -928
    x[29]     c1        980
    x[29]     OBJ       -64
    x[30]     c1        967
    x[30]     OBJ       -746
RHS
    rhs       c1        8596
RANGES
BOUNDS
 LO bounds    x[1]      0
 PL bounds    x[1]
 LO bounds    x[2]      0
 PL bounds    x[2]
 LO bounds    x[3]      0
 PL bounds    x[3]
 LO bounds    x[4]      0
 PL bounds    x[4]
 LO bounds    x[5]      0
 PL bounds    x[5]
 LO bounds    x[6]      0
 PL bounds    x[6]
 LO bounds    x[7]      0
 PL bounds    x[7]
 LO bounds    x[8]      0
 PL bounds    x[8]
 LO bounds    x[9]      0
 PL bounds    x[9]
 LO bounds    x[10]     0
 PL bounds    x[10]
 LO bounds    x[11]     0
 PL bounds    x[11]
 LO bounds    x[12]     0
 PL bounds    x[12]
 LO bounds    x[13]     0
 PL bounds    x[13]
 LO bounds    x[14]     0
 PL bounds    x[14]
 LO bounds    x[15]     0
 PL bounds    x[15]
 LO bounds    x[16]     0
 PL bounds    x[16]
 LO bounds    x[17]     0
 PL bounds    x[17]
 LO bounds    x[18]     0
 PL bounds    x[18]
 LO bounds    x[19]     0
 PL bounds    x[19]
 LO bounds    x[20]     0
 PL bounds    x[20]
 LO bounds    x[21]     0
 PL bounds    x[21]
 LO bounds    x[22]     0
 PL bounds    x[22]
 LO bounds    x[23]     0
 PL bounds    x[23]
 LO bounds    x[24]     0
 PL bounds    x[24]
 LO bounds    x[25]     0
 PL bounds    x[25]
 LO bounds    x[26]     0
 PL bounds    x[26]
 LO bounds    x[27]     0
 PL bounds    x[27]
 LO bounds    x[28]     0
 PL bounds    x[28]
 LO bounds    x[29]     0
 PL bounds    x[29]
 LO bounds    x[30]     0
 PL bounds    x[30]
ENDATA
